SAT
-1 -75 -74 -73 -72 71 70 -39 -33 69 -29 -49 -67 -4 43 -48 46 57 -15 -47 32 -16 -14 10 -5 -8 38 -66 -53 42 19 41 13 36 -63 17 -44 -60 -18 -24 -20 -30 -40 6 -58 -37 -35 62 -34 -12 -50 65 -55 45 -61 -64 31 -7 3 -22 -68 -54 -25 2 -27 -28 23 51 56 21 9 26 11 52 59 0
